TOUR_SECTION
25
104
8
187
182
52
116
57
105
30
34
168
22
23
128
47
1
200
121
125
6
178
67
133
155
13
83
10
137
24
193
85
167
141
2
90
69
150
95
112
7
180
161
94
65
78
59
51
48
41
81
183
66
56
103
39
82
169
138
45
142
93
129
109
46
29
159
119
197
185
158
120
42
147
149
139
100
16
154
21
176
126
18
31
114
131
84
61
113
44
151
32
14
50
89
107
117
58
175
99
194
73
170
33
174
184
63
12
127
199
98
38
106
122
118
64
191
60
5
192
188
91
163
76
195
173
55
135
123
148
15
179
124
132
111
190
162
160
4
146
36
186
108
171
9
115
37
19
27
72
145
156
153
144
40
88
157
43
20
102
71
136
74
110
130
3
79
70
177
26
92
196
49
68
28
80
172
75
54
53
17
143
96
164
62
181
35
198
166
87
97
77
152
101
189
11
134
140
86
165
-1
EOF